6 8
2 2 1 32 2 32 2 5 30 6 30
2 2 3 36 4 36 2 7 30 8 30
2 2 1 40 2 40 2 3 20 4 20
2 2 5 30 6 30 2 7 20 8 20
4 2 1 16 2 16 2 3 20 4 20 2 5 30 6 30 2 7 34 8 34
4 2 3 20 4 20 2 5 30 6 30 2 7 16 8 16 2 1 30 2 30 